Version identifier: 22.1.0.0 | 2022-03-09 | 1a383f8ce
CPXPARAM_Threads                                 1
CPXPARAM_MIP_Strategy_VariableSelect             3
CPXPARAM_TimeLimit                               600
Tried aggregator 1 time.
Reduced MIP has 1225 rows, 7000 columns, and 58248 nonzeros.
Reduced MIP has 6000 binaries, 1000 generals, 0 SOSs, and 0 indicators.
Presolve time = 0.03 sec. (23.07 ticks)
Found incumbent of value 978.000000 after 0.08 sec. (57.91 ticks)
Probing time = 0.01 sec. (6.78 ticks)
Tried aggregator 1 time.
Detecting symmetries...
Reduced MIP has 1225 rows, 7000 columns, and 58248 nonzeros.
Reduced MIP has 6000 binaries, 1000 generals, 0 SOSs, and 0 indicators.
Presolve time = 0.04 sec. (28.49 ticks)
Probing time = 0.01 sec. (6.78 ticks)
Clique table members: 206.
MIP emphasis: balance optimality and feasibility.
MIP search method: dynamic search.
Parallel mode: none, using 1 thread.
Root relaxation solution time = 0.66 sec. (706.89 ticks)

        Nodes                                         Cuts/
   Node  Left     Objective  IInf  Best Integer    Best Bound    ItCnt     Gap

*     0+    0                          978.0000        0.0000           100.00%
      0     0        0.0000  1164      978.0000        0.0000     3394  100.00%
      0     0        0.0000   310      978.0000   ZeroHalf: 1     3792  100.00%
      0     0        0.0000   893      978.0000      Cuts: 68     7201  100.00%
      0     0        0.0000   331      978.0000   ZeroHalf: 1     7307  100.00%
*     0+    0                          252.0000        0.0000           100.00%
      0     0  -1.00000e+75     0      252.0000        0.0000     7307  100.00%
      0     0        0.0000   438      252.0000  ZeroHalf: 29     9442  100.00%
*     0+    0                          185.0000        0.0000           100.00%
      0     0  -1.00000e+75     0      185.0000        0.0000     9442  100.00%
Detecting symmetries...
      0     2        0.0000   240      185.0000        0.0000     9442  100.00%
Elapsed time = 13.48 sec. (14503.98 ticks, tree = 0.01 MB, solutions = 3)
      1     3        0.0000   348      185.0000        0.0000    15767  100.00%
      2     4        0.0000  1156      185.0000        0.0000    20440  100.00%
      3     5        0.0000  1061      185.0000        0.0000    25215  100.00%
      4     6        0.0000   344      185.0000        0.0000    25496  100.00%
      5     7        0.0000   413      185.0000        0.0000    26823  100.00%
      6     8        0.0000   327      185.0000        0.0000    28883  100.00%
      7     9        0.0000   307      185.0000        0.0000    30247  100.00%
      8    10        0.0000   258      185.0000        0.0000    32886  100.00%
      9    11        0.0000   507      185.0000        0.0000    35328  100.00%
     11    13        0.0000   237      185.0000        0.0000    38259  100.00%
Elapsed time = 22.87 sec. (24492.90 ticks, tree = 0.10 MB, solutions = 3)
     13    15        0.0000   335      185.0000        0.0000    41350  100.00%
     15    17        0.0000   430      185.0000        0.0000    47390  100.00%
     17    19        0.0000   257      185.0000        0.0000    54408  100.00%
     19    21        0.0000   254      185.0000        0.0000    57453  100.00%
     21    23        0.0000   232      185.0000        0.0000    60941  100.00%
     24    26        0.0000   474      185.0000        0.0000    68440  100.00%
     27    29        0.0000   538      185.0000        0.0000    72128  100.00%
     29    31        0.0000   211      185.0000        0.0000    74462  100.00%
     31    33        0.0000   229      185.0000        0.0000    77660  100.00%
     34    36        0.0000   238      185.0000        0.0000    80639  100.00%
Elapsed time = 36.85 sec. (39045.90 ticks, tree = 0.30 MB, solutions = 3)
     36    38        0.0000   369      185.0000        0.0000    83765  100.00%
     38    40        0.0000   315      185.0000        0.0000    88694  100.00%
*    40+   40                           27.0000        0.0000           100.00%
     40    42       -0.0000   354       27.0000        0.0000    90872  100.00%
     42    44       -0.0000   316       27.0000        0.0000    93684  100.00%
     45    47        0.0000   301       27.0000        0.0000    95866  100.00%
     49    51        0.0000   272       27.0000        0.0000    99248  100.00%
     51    53        0.0000   171       27.0000        0.0000   104447  100.00%
     53    55        0.0161   300       27.0000        0.0000   107242  100.00%
     56    58        0.0714   315       27.0000        0.0000   111979  100.00%
     59    61        0.0786   306       27.0000        0.0000   115651  100.00%
Elapsed time = 51.11 sec. (53382.94 ticks, tree = 0.55 MB, solutions = 4)
     62    64        0.1667   252       27.0000        0.0000   118537  100.00%
     66    68        1.0000   184       27.0000        0.0000   119876  100.00%
     69    71        1.0000   140       27.0000        0.0000   123657  100.00%
     71    73        1.1667   454       27.0000        0.0000   126250  100.00%
     74    76        1.0000   239       27.0000        0.0000   128235  100.00%
     78    80        1.0000   212       27.0000        0.0000   130017  100.00%
     82    84        1.0000   207       27.0000        0.0000   132263  100.00%
     85    87        1.0833   396       27.0000        0.0000   136018  100.00%
     89    91        1.0833   252       27.0000        0.0000   139981  100.00%
     94    96        1.0000   193       27.0000        0.0000   140909  100.00%
Elapsed time = 62.76 sec. (64944.95 ticks, tree = 0.97 MB, solutions = 4)
     97    99        1.0000   159       27.0000        0.0000   143027  100.00%
    100   102        1.2500   448       27.0000        0.0000   146788  100.00%
    103   105        1.1667   331       27.0000        0.0000   148562  100.00%
    106   108        2.0000   233       27.0000        0.0000   151155  100.00%
    110   112        2.1667   363       27.0000        0.0000   153361  100.00%
    114   116        3.0000   328       27.0000        0.0000   156937  100.00%
    118   120        2.0000   289       27.0000        0.0000   160364  100.00%
    121   123        2.0000   277       27.0000        0.0000   162812  100.00%
    124   126        2.1250   275       27.0000        0.0000   166322  100.00%
    128   130        3.0000   293       27.0000        0.0000   168016  100.00%
Elapsed time = 74.29 sec. (76340.56 ticks, tree = 1.38 MB, solutions = 4)
*   130+  130                            9.0000        0.0000           100.00%
    132   134        2.3000   381        9.0000        0.0000   168870  100.00%
    136   138        2.4000   370        9.0000        0.0000   170361  100.00%
    140   142        2.5000   379        9.0000        0.0000   172573  100.00%
    144   146        3.5000   383        9.0000        0.0000   174601  100.00%
    148   150        4.1250   362        9.0000        0.0000   177089  100.00%
    153   155        4.0000   359        9.0000        0.0000   178862  100.00%
    158   160        3.5000   308        9.0000        0.0000   180065  100.00%
    162   164        4.2778   373        9.0000        0.0000   182550  100.00%
    166   168        3.5000   282        9.0000        0.0000   183986  100.00%
    171   173        4.0000   259        9.0000        0.0000   185201  100.00%
Elapsed time = 85.19 sec. (86869.41 ticks, tree = 1.92 MB, solutions = 5)
    177   179        4.5000   297        9.0000        0.0000   187017  100.00%
    182   184        4.1250   267        9.0000        0.0000   190304  100.00%
    186   188        4.5000   182        9.0000        0.0000   192278  100.00%
    190   192        4.0000   177        9.0000        0.0000   193817  100.00%
    196   198        4.5000   138        9.0000        0.0000   195326  100.00%
*   201   161      integral     0        5.0000        0.0000   196876  100.00%
    203   163        0.0000   118        5.0000        0.0000   199700  100.00%
    205   165        0.1452   392        5.0000        0.0000   203360  100.00%
    209   169        0.0403   290        5.0000        0.0000   206590  100.00%
    212   172        0.0806   396        5.0000        0.0000   210369  100.00%
Elapsed time = 96.67 sec. (98084.01 ticks, tree = 1.90 MB, solutions = 6)
    215   175        0.0161   292        5.0000        0.0000   214019  100.00%
    219   179        0.1613   287        5.0000        0.0000   216619  100.00%
    221   181        0.1613   266        5.0000        0.0000   219958  100.00%
    223   183       -0.0000   175        5.0000        0.0000   223124  100.00%
    226   186        0.2000   341        5.0000        0.0000   226273  100.00%
    230   190        1.0000   223        5.0000        0.0000   227744  100.00%
    235   195        1.0000   195        5.0000        0.0000   228348  100.00%
    238   198        1.0000   174        5.0000        0.0000   231166  100.00%
    240   200        1.0000   354        5.0000        0.0000   233182  100.00%
    243   203        1.0000   244        5.0000        0.0000   235054  100.00%
Elapsed time = 107.42 sec. (108831.30 ticks, tree = 2.30 MB, solutions = 6)
    246   206        1.0000   392        5.0000        0.0000   238210  100.00%
    250   210        1.0000   256        5.0000        0.0000   240333  100.00%
    253   213        1.0000   321        5.0000        0.0000   243423  100.00%
    256   216        1.0000   356        5.0000        0.0000   246472  100.00%
    259   219        1.0000   270        5.0000        0.0000   248797  100.00%
    262   222        1.0000   220        5.0000        0.0000   251346  100.00%
    266   226        1.0417   338        5.0000        0.0000   253641  100.00%
    269   229        1.0000   264        5.0000        0.0000   257744  100.00%
    273   233        1.0000   274        5.0000        0.0000   260136  100.00%
    276   236        1.2500   307        5.0000        0.0000   263494  100.00%
Elapsed time = 119.48 sec. (120690.44 ticks, tree = 2.72 MB, solutions = 6)
    280   240        1.0000   270        5.0000        0.0000   265504  100.00%
    284   244        1.0000   253        5.0000        0.0000   267508  100.00%
    288   248        1.0000   275        5.0000        0.0000   268856  100.00%
    292   252        1.1667   402        5.0000        0.0000   272485  100.00%
    296   256        1.0714   406        5.0000        0.0000   275612  100.00%
    299   259        2.0000   222        5.0000        0.0000   278770  100.00%
    302   262        2.1571   420        5.0000        0.0000   282427  100.00%
    305   265        2.3252   416        5.0000        0.0000   284982  100.00%
    308   267        3.6667   274        5.0000        0.0000   287935  100.00%
*   310+  241                            4.0000        0.0000           100.00%
    323   247        2.5000   198        4.0000        0.0000   293692  100.00%
Elapsed time = 133.73 sec. (134302.17 ticks, tree = 2.89 MB, solutions = 7)
    349   259        3.0000   239        4.0000        0.0000   302832  100.00%
    366   272        0.4000   418        4.0000        0.0000   310046  100.00%
    380   286        0.4000   378        4.0000        0.0000   311581  100.00%
    397   303        0.4000   380        4.0000        0.0000   313194  100.00%
    409   315       -0.0000   214        4.0000        0.0000   320001  100.00%
    421   327        0.0543   439        4.0000        0.0000   327916  100.00%
    436   342        0.2105   430        4.0000        0.0000   332007  100.00%
    450   356        0.5000   555        4.0000        0.0000   335268  100.00%
    465   371        0.5000   345        4.0000        0.0000   339824  100.00%
    480   386        0.6000   486        4.0000        0.0000   342517  100.00%
Elapsed time = 174.68 sec. (173765.99 ticks, tree = 4.67 MB, solutions = 7)
    491   397        0.0543   383        4.0000        0.0000   350665  100.00%
*   492+  339                            3.0000        0.0000           100.00%
    493   342        0.0394   486        3.0000        0.0000   356709  100.00%
    506   355        0.4000   447        3.0000        0.0000   363183  100.00%
    522   369        0.6000   439        3.0000        0.0000   367360  100.00%
    540   386        0.7500   429        3.0000        0.0000   370720  100.00%
    560   404        0.7500   410        3.0000        0.0000   373394  100.00%
    579   422        0.7500   242        3.0000        0.0000   377672  100.00%
    595   436        1.0000   362        3.0000        0.0000   382191  100.00%
    617   447        1.0000   356        3.0000        0.0000   384932  100.00%
    634   459        1.5000   341        3.0000        0.0000   389669  100.00%
Elapsed time = 234.43 sec. (228326.92 ticks, tree = 5.62 MB, solutions = 8)
    654   469        1.5000   517        3.0000        0.0000   393414  100.00%
    673   477        1.5000   455        3.0000        0.0000   399785  100.00%
    689   485        1.5000   405        3.0000        0.0000   405545  100.00%
    710   489        2.0000   330        3.0000        0.0000   416277  100.00%
    728   498        0.0594   390        3.0000        0.0000   427942  100.00%
    747   517        0.3333   478        3.0000        0.0000   430939  100.00%
    768   537        0.3333   406        3.0000        0.0000   432649  100.00%
    783   552        0.7000   426        3.0000        0.0000   437191  100.00%
    800   569        0.7000   283        3.0000        0.0000   440477  100.00%
    819   584        1.0000   422        3.0000        0.0000   443511  100.00%
Elapsed time = 277.13 sec. (268676.12 ticks, tree = 7.24 MB, solutions = 8)
    837   599        1.0000   408        3.0000        0.0000   446193  100.00%
    856   617        1.0000   406        3.0000        0.0000   448517  100.00%
    876   631        1.0000   396        3.0000        0.0000   450852  100.00%
    892   645        1.0000   378        3.0000        0.0000   454540  100.00%
    908   657        1.0714   506        3.0000        0.0000   459716  100.00%
    925   669        1.3333   372        3.0000        0.0000   465175  100.00%
    946   675        2.0957   458        3.0000        0.0000   473540  100.00%
    957   686        1.0000   404        3.0000        0.0000   483083  100.00%
    969   698        0.3333   380        3.0000        0.0000   490214  100.00%
    985   714        0.4000   403        3.0000        0.0000   496071  100.00%
Elapsed time = 318.36 sec. (308046.46 ticks, tree = 8.89 MB, solutions = 8)
    996   725        1.1875   390        3.0000        0.0000   508220  100.00%
   1009   730    infeasible              3.0000        0.0000   523649  100.00%
   1023   744        0.3846   317        3.0000        0.0000   529384  100.00%
   1040   759        0.6000   374        3.0000        0.0000   532352  100.00%
   1059   778        0.6000   311        3.0000        0.0000   535707  100.00%
   1079   795        0.7500   343        3.0000        0.0000   538582  100.00%

Performing restart 1

Repeating presolve.
Tried aggregator 1 time.
MIP Presolve modified 67248 coefficients.
Reduced MIP has 1225 rows, 7000 columns, and 42328 nonzeros.
Reduced MIP has 6002 binaries, 998 generals, 0 SOSs, and 0 indicators.
Presolve time = 0.06 sec. (72.46 ticks)
Tried aggregator 1 time.
Reduced MIP has 1225 rows, 7000 columns, and 42328 nonzeros.
Reduced MIP has 6002 binaries, 998 generals, 0 SOSs, and 0 indicators.
Presolve time = 0.03 sec. (22.79 ticks)
Represolve time = 0.30 sec. (210.27 ticks)
   1091     0        0.0000   616        3.0000   ZeroHalf: 1   545790  100.00%
   1091     0        0.0000   605        3.0000      Cuts: 98   549112  100.00%
   1091     0        0.0000   621        3.0000      Cuts: 12   551847  100.00%
   1091     0        0.0000   509        3.0000   ZeroHalf: 4   552787  100.00%
   1091     0        0.0000   346        3.0000   ZeroHalf: 1   553873  100.00%
   1091     2        0.0000   218        3.0000        0.0000   553873  100.00%
   1094     5        0.0000   788        3.0000        0.0000   569060  100.00%
   1102    13       -0.0000   547        3.0000        0.0000   580010  100.00%
   1109    20       -0.0000   651        3.0000        0.0000   591222  100.00%
Elapsed time = 393.45 sec. (381367.55 ticks, tree = 0.18 MB, solutions = 8)
   1114    25       -0.0000   647        3.0000        0.0000   606856  100.00%
   1119    30       -0.0000   462        3.0000        0.0000   625205  100.00%
   1122    33        0.0000   446        3.0000        0.0000   636286  100.00%
   1127    38        0.0000   586        3.0000        0.0000   649125  100.00%
   1131    42       -0.0000   689        3.0000        0.0000   664760  100.00%
   1137    48        0.0000   393        3.0000        0.0000   678393  100.00%
   1141    52        0.0000   404        3.0000        0.0000   692394  100.00%
   1145    56        0.0000   604        3.0000        0.0000   709760  100.00%
   1150    61        0.0000   477        3.0000        0.0000   723908  100.00%
   1155    66        0.0761   529        3.0000        0.0000   738772  100.00%
Elapsed time = 434.61 sec. (423498.00 ticks, tree = 0.59 MB, solutions = 8)
   1160    71        0.0000   718        3.0000        0.0000   752799  100.00%
   1172    83        0.0000   555        3.0000        0.0000   761250  100.00%
   1184    95       -0.0000   536        3.0000        0.0000   768547  100.00%
   1191   102        0.0250   556        3.0000        0.0000   772764  100.00%
   1206   117        0.0625   380        3.0000        0.0000   782236  100.00%
   1221   131       -0.0000   353        3.0000        0.0000   790952  100.00%
   1237   147        0.3864   364        3.0000        0.0000   803630  100.00%
   1254   164        0.1563   388        3.0000        0.0000   814563  100.00%
   1274   183        1.1667   366        3.0000        0.0000   825079  100.00%
   1294   201        0.4271   515        3.0000        0.0000   833463  100.00%
Elapsed time = 487.88 sec. (473674.46 ticks, tree = 2.27 MB, solutions = 8)
   1313   218        1.0952   432        3.0000        0.0000   841826  100.00%
   1336   240        1.3437   405        3.0000        0.0000   850746  100.00%
   1359   248        1.4167   258        3.0000        0.0000   863197  100.00%
   1371   254       -0.0000   477        3.0000        0.0000   872572  100.00%
   1384   267       -0.0000   436        3.0000        0.0000   882797  100.00%
   1398   281       -0.0000   216        3.0000        0.0000   893984  100.00%
   1412   294        1.2778   349        3.0000        0.0000   907553  100.00%
   1435   316        1.0000   367        3.0000        0.0000   914499  100.00%
   1457   337        0.3333   376        3.0000        0.0000   923043  100.00%
   1478   354        2.0000   320        3.0000        0.0000   931926  100.00%
Elapsed time = 528.61 sec. (514106.75 ticks, tree = 4.23 MB, solutions = 8)
   1498   371        0.5833   395        3.0000        0.0000   941574  100.00%
   1523   386        1.0000   382        3.0000        0.0000   950509  100.00%
   1552   402        1.0000   339        3.0000        0.0000   957702  100.00%
   1584   416        1.9524   241        3.0000        0.0000   967500  100.00%
Starting limited solution polishing.
   1591   420        0.0000   731        3.0000        0.0000   974744  100.00%
   1605   434        0.0652   648        3.0000        0.0000   981014  100.00%
   1622   451        0.0652   624        3.0000        0.0000   984882  100.00%
   1639   468        0.0833   665        3.0000        0.0000   989178  100.00%
   1654   483        0.1000   490        3.0000        0.0000   997916  100.00%
   1671   500        0.1538   415        3.0000        0.0000  1007068  100.00%
Elapsed time = 567.56 sec. (553175.54 ticks, tree = 6.09 MB, solutions = 8)
   1691   520        0.1765   486        3.0000        0.0000  1013948  100.00%
   1703   532       -0.0000   640        3.0000        0.0000  1020539  100.00%
   1718   547       -0.0000   568        3.0000        0.0000  1025261  100.00%
   1733   562        0.2143   559        3.0000        0.0000  1031054  100.00%
   1749   578        0.3947   599        3.0000        0.0000  1038347  100.00%
   1769   598        0.5000   594        3.0000        0.0000  1045182  100.00%
   1794   623        0.5000   561        3.0000        0.0000  1049134  100.00%
   1817   646        0.5817   477        3.0000        0.0000  1055366  100.00%

Zero-half cuts applied:  9
Gomory fractional cuts applied:  2

Root node processing (before b&c):
  Real time             =   13.42 sec. (14432.73 ticks)
Sequential b&c:
  Real time             =  586.59 sec. (571476.13 ticks)
                          ------------
Total (root+branch&cut) =  600.00 sec. (585908.86 ticks)
Primal number of violations:	3
Dual number of violations:	0
Status:	Feasible
Time:	600.02
Sequence:
	23
	8
	16
	10
	7
	14
	13
	7
	14
	12
	14
	9
	10
	14
	7
	23
	0
	18
	10
	16
	7
	21
	2
	18
	12
	14
	7
	12
	14
	7
	21
	1
	20
	10
	14
	7
	21
	2
	18
	12
	14
	7
	10
	16
	9
	10
	14
	7
	21
	2
	18
	12
	14
	7
	5
	18
	7
	3
	20
	7
	5
	7
	18
	4
	7
	18
	3
	18
	9
	14
	10
	18
	1
	24
	7
	14
	10
	14
	7
	23
	7
	15
	21
	7
	16
	10
	19
	1
	21
	7
	16
	10
	19
	1
	21
	7
	14
	9
	21
	1
	18
	10
	15
	7
	21
	1
	18
	13
	14
	7
	12
	14
	8
	21
	1
	18
	12
	15
	7
	18
	3
	18
	9
	3
	18
	7
	14
	11
	18
	1
	21
	7
	15
	12
	18
	1
	21
	8
	16
	10
	7
	16
	8
	10
	14
	7
	23
	0
	18
	10
	14
	7
	19
	3
	7
	18
	3
	19
	7
	5
	7
	18
	6
	18
	12
	14
	7
	18
	3
	20
	7
	5
	18
	7
	17
	7
	18
	5
	7
	19
	3
	7
	18
	5
	20
	7
	14
	10
	16
	8
	10
	16
	7
	21
	2
	18
	12
	14
	7
	22
